
  14    0


   0   9 2 4 5 8 9 10 11 12 13 
   1   2 7 3 
   1   1 6 
   1   1 6 
   4   1 6 
   9   1 14
   6   1 14
   9   1 14
   5   1 14
   4   1 14
   2   1 14
   8   1 14
   3   1 14
   0   0 
